PROBLEM NAME: small_4_UncorrelatedWithSimilarWeights_n14_m39_c1
KNAPSACK DATA TYPE:
DIMENSION: 14
NUMBER OF ITEMS: 39
CAPACITY OF KNAPSACK: 3565
MIN SPEED: 0.1
MAX SPEED: 1.0
RENTING RATIO: 1.0
EDGE_WEIGHT_TYPE: CEIL_2D
NODE_COORD_SECTION	(INDEX, X, Y): 
1	14	37
2	890	954
3	561	401
4	92	290
5	103	15
6	936	596
7	102	334
8	481	749
9	475	999
10	748	535
11	639	87
12	463	63
13	9	667
14	284	755
ITEMS SECTION	(INDEX, PROFIT, WEIGHT, ASSIGNED NODE NUMBER): 
1	337	1001	2
2	568	1002	2
3	792	1007	2
4	775	1000	3
5	952	1010	3
6	166	1007	3
7	566	1010	4
8	674	1008	4
9	379	1008	4
10	938	1010	5
11	732	1004	5
12	955	1000	5
13	520	1003	6
14	341	1001	6
15	822	1007	6
16	64	1008	7
17	218	1001	7
18	838	1010	7
19	608	1010	8
20	567	1002	8
21	849	1007	8
22	659	1003	9
23	629	1008	9
24	599	1010	9
25	174	1009	10
26	571	1003	10
27	713	1010	10
28	575	1008	11
29	939	1005	11
30	564	1006	11
31	618	1009	12
32	419	1008	12
33	842	1007	12
34	967	1010	13
35	985	1001	13
36	31	1002	13
37	326	1003	14
38	253	1001	14
39	213	1006	14
